8688.0
23,32,37,70,84,116,121,156,159,188,196,198,211,215,216,236,245,249,262,269,292,347,399,421,426,446,463,469,473,479,505,539,545,568,573,585,599,603,643,657,658,669,708,726,732,737,743,770,775,827,830,845,935,945,967,979,989,992